assets/logs/18_10x10_clingo/18_10x10_clingo.solution.log

-----------------------------------------
| 93| 92| 65| 32| 50| 36| 33| 28|  5| 40|
-----------------------------------------
|  0| 86| 91| 29| 63| 30| 48| 38| 35| 26|
-----------------------------------------
| 90| 67|  1| 52| 34| 31| 61|  3| 42|  7|
-----------------------------------------
| 84| 78| 88| 89| 27|  6| 11| 46| 24| 37|
-----------------------------------------
| 69| 72| 82|  8| 54| 15| 22| 59|  9| 44|
-----------------------------------------
| 80| 58| 76| 70| 87| 25|  4| 13| 39| 57|
-----------------------------------------
| 74| 71| 10| 56| 66| 16| 17| 20|  2| 43|
-----------------------------------------
| 60| 77| 68| 14| 23| 85| 47| 41| 55|  1|
-----------------------------------------
|  1| 12| 73| 64| 81| 19| 18| 51| 45|  0|
-----------------------------------------
| 75| 62| 79| 21|  0| 49| 83|  1|  0| 53|
-----------------------------------------

| n = 10 | k = 4 | coverage = 96, 96.0%
 Time 299.99
 Name 18_10x10_clingo

