assets/logs/18_10x10_clingo/18_10x10_clingo.log
clingo version 5.4.0
Reading from ...s/logs/18_10x10_clingo/knights_tour.lp ...
Solving...
Answer: 1
occ(1,8,10) occ(1,3,3) occ(1,9,1) occ(1,10,8) occ(2,7,9) occ(3,3,8) coverage(6)
Optimization: -6
Answer: 2
occ(1,8,10) occ(1,3,3) occ(1,9,1) occ(1,10,8) occ(2,7,9) occ(3,3,8) coverage(8) occ(7,1,8) occ(5,2,10) occ(4,5,10) occ(6,6,8)
Optimization: -8
Answer: 3
occ(1,8,10) occ(1,3,3) occ(1,9,1) occ(1,10,8) occ(2,7,9) occ(3,3,8) coverage(10) occ(5,1,9) occ(9,2,8) occ(7,3,10) occ(4,5,10) occ(6,6,8) occ(8,7,10)
Optimization: -10
Answer: 4
occ(1,8,10) occ(1,3,3) occ(1,9,1) occ(1,10,8) occ(2,7,9) occ(3,3,8) coverage(11) occ(9,1,7) occ(7,2,9) occ(5,4,10) occ(4,5,10) occ(6,6,8) occ(8,7,10) occ(10,9,9)
Optimization: -11
Answer: 5
occ(1,8,10) occ(1,3,3) occ(1,9,1) occ(1,10,8) occ(2,7,9) occ(3,3,8) coverage(47) occ(7,1,8) occ(15,1,6) occ(19,1,2) occ(30,1,7) occ(33,1,3) occ(50,1,9) occ(72,1,10) occ(5,2,10) occ(9,2,6) occ(17,2,4) occ(28,2,5) occ(35,2,1) occ(42,2,2) occ(48,2,7) occ(70,2,8) occ(13,3,7) occ(21,3,1) occ(31,3,2) occ(32,3,6) occ(38,3,5) occ(44,3,4) occ(52,3,10) occ(74,3,9) occ(11,4,5) occ(26,4,4) occ(34,4,8) occ(37,4,2) occ(40,4,3) occ(46,4,6) occ(68,4,9) occ(78,4,10) occ(23,5,2) occ(29,5,1) occ(36,5,6) occ(39,5,4) occ(54,5,9) occ(76,5,8) occ(94,5,7) occ(24,6,3) occ(25,6,4) occ(41,6,6) occ(66,6,10) occ(80,6,9) occ(92,6,5) occ(6,7,5) occ(10,7,3) occ(22,7,1) occ(27,7,2) occ(56,7,10) occ(64,7,8) occ(82,7,7) occ(96,7,6) occ(4,8,7) occ(14,8,4) occ(20,8,3) occ(43,8,5) occ(58,8,8) occ(84,8,9) occ(90,8,6) occ(8,9,4) occ(12,9,2) occ(16,9,6) occ(62,9,9) occ(88,9,8) occ(18,10,4) occ(45,10,6) occ(60,10,7) occ(86,10,10)
Optimization: -47
Answer: 6
occ(1,8,10) occ(1,3,3) occ(1,9,1) occ(1,10,8) occ(2,7,9) occ(3,3,8) coverage(49) occ(7,1,8) occ(15,1,6) occ(19,1,2) occ(30,1,7) occ(33,1,3) occ(50,1,9) occ(72,1,10) occ(5,2,10) occ(9,2,6) occ(17,2,4) occ(28,2,5) occ(35,2,1) occ(42,2,2) occ(48,2,7) occ(70,2,8) occ(13,3,7) occ(21,3,1) occ(31,3,2) occ(32,3,6) occ(38,3,5) occ(44,3,4) occ(52,3,10) occ(74,3,9) occ(11,4,5) occ(26,4,4) occ(34,4,8) occ(37,4,2) occ(40,4,3) occ(46,4,6) occ(47,4,7) occ(68,4,9) occ(78,4,10) occ(23,5,2) occ(29,5,1) occ(36,5,6) occ(39,5,4) occ(45,5,5) occ(54,5,9) occ(76,5,8) occ(94,5,7) occ(24,6,3) occ(25,6,4) occ(43,6,7) occ(66,6,10) occ(80,6,9) occ(92,6,5) occ(10,7,3) occ(22,7,1) occ(27,7,2) occ(41,7,5) occ(56,7,10) occ(64,7,8) occ(82,7,7) occ(96,7,6) occ(4,8,7) occ(14,8,4) occ(20,8,3) occ(58,8,8) occ(84,8,9) occ(90,8,6) occ(8,9,4) occ(12,9,2) occ(16,9,6) occ(62,9,9) occ(88,9,8) occ(6,10,6) occ(18,10,4) occ(60,10,7) occ(86,10,10)
Optimization: -49
Answer: 7
occ(1,8,10) occ(1,3,3) occ(1,9,1) occ(1,10,8) occ(2,7,9) occ(3,3,8) coverage(51) occ(7,1,8) occ(15,1,6) occ(19,1,2) occ(30,1,7) occ(33,1,3) occ(50,1,9) occ(72,1,10) occ(5,2,10) occ(9,2,6) occ(17,2,4) occ(28,2,5) occ(35,2,1) occ(42,2,2) occ(48,2,7) occ(70,2,8) occ(13,3,7) occ(21,3,1) occ(31,3,2) occ(32,3,6) occ(38,3,5) occ(44,3,4) occ(52,3,10) occ(74,3,9) occ(11,4,5) occ(26,4,4) occ(34,4,8) occ(37,4,2) occ(40,4,3) occ(46,4,6) occ(68,4,9) occ(78,4,10) occ(23,5,2) occ(29,5,1) occ(36,5,6) occ(39,5,4) occ(54,5,9) occ(76,5,8) occ(94,5,7) occ(24,6,3) occ(25,6,4) occ(41,6,6) occ(66,6,10) occ(80,6,9) occ(92,6,5) occ(10,7,3) occ(22,7,1) occ(27,7,2) occ(56,7,10) occ(64,7,8) occ(82,7,7) occ(96,7,6) occ(4,8,7) occ(14,8,4) occ(20,8,3) occ(43,8,5) occ(58,8,8) occ(84,8,9) occ(90,8,6) occ(8,9,4) occ(12,9,2) occ(16,9,6) occ(45,9,7) occ(49,9,3) occ(62,9,9) occ(88,9,8) occ(6,10,6) occ(18,10,4) occ(47,10,5) occ(60,10,7) occ(86,10,10)
Optimization: -51
Answer: 8
occ(1,8,10) occ(1,3,3) occ(1,9,1) occ(1,10,8) occ(2,7,9) occ(3,3,8) coverage(53) occ(30,1,7) occ(50,1,9) occ(51,1,2) occ(72,1,10) occ(5,2,6) occ(27,2,3) occ(28,2,5) occ(42,2,2) occ(48,2,7) occ(49,2,4) occ(70,2,8) occ(25,3,1) occ(32,3,6) occ(38,3,5) occ(44,3,4) occ(52,3,10) occ(74,3,9) occ(7,4,7) occ(26,4,4) occ(29,4,2) occ(34,4,8) occ(40,4,3) occ(46,4,6) occ(47,4,5) occ(68,4,9) occ(78,4,10) occ(4,5,10) occ(9,5,5) occ(23,5,2) occ(31,5,4) occ(36,5,6) occ(54,5,9) occ(76,5,8) occ(94,5,7) occ(6,6,8) occ(21,6,4) occ(24,6,3) occ(33,6,2) occ(45,6,6) occ(66,6,10) occ(80,6,9) occ(92,6,5) occ(11,7,4) occ(19,7,2) occ(22,7,1) occ(56,7,10) occ(64,7,8) occ(82,7,7) occ(96,7,6) occ(8,8,7) occ(13,8,2) occ(14,8,4) occ(35,8,1) occ(43,8,5) occ(58,8,8) occ(84,8,9) occ(90,8,6) occ(10,9,5) occ(16,9,6) occ(17,9,3) occ(20,9,2) occ(39,9,4) occ(62,9,9) occ(88,9,8) occ(12,10,3) occ(15,10,1) occ(18,10,4) occ(37,10,2) occ(41,10,6) occ(60,10,7) occ(86,10,10)
Optimization: -53
Answer: 9
occ(1,8,10) occ(1,3,3) occ(1,9,1) occ(1,10,8) occ(2,7,9) occ(3,3,8) coverage(55) occ(19,1,2) occ(30,1,7) occ(50,1,9) occ(51,1,8) occ(72,1,10) occ(5,2,6) occ(17,2,4) occ(24,2,3) occ(28,2,5) occ(42,2,2) occ(48,2,7) occ(53,2,10) occ(70,2,8) occ(15,3,2) occ(21,3,1) occ(32,3,6) occ(38,3,5) occ(44,3,4) occ(49,3,7) occ(52,3,10) occ(74,3,9) occ(7,4,7) occ(22,4,2) occ(26,4,4) occ(34,4,8) occ(40,4,3) occ(46,4,6) occ(47,4,5) occ(68,4,9) occ(78,4,10) occ(4,5,10) occ(9,5,5) occ(13,5,3) occ(20,5,4) occ(23,5,2) occ(29,5,1) occ(36,5,6) occ(54,5,9) occ(76,5,8) occ(94,5,7) occ(6,6,8) occ(27,6,3) occ(45,6,6) occ(66,6,10) occ(80,6,9) occ(92,6,5) occ(11,7,4) occ(18,7,5) occ(25,7,1) occ(31,7,2) occ(56,7,10) occ(64,7,8) occ(82,7,7) occ(96,7,6) occ(8,8,7) occ(14,8,2) occ(37,8,4) occ(43,8,5) occ(58,8,8) occ(84,8,9) occ(90,8,6) occ(10,9,5) occ(16,9,4) occ(33,9,3) occ(39,9,2) occ(62,9,9) occ(88,9,8) occ(12,10,3) occ(35,10,5) occ(41,10,4) occ(60,10,7) occ(86,10,10)
Optimization: -55
Answer: 10
occ(1,8,10) occ(1,3,3) occ(1,9,1) occ(1,10,8) occ(2,7,9) occ(3,3,8) coverage(57) occ(7,1,8) occ(30,1,7) occ(50,1,9) occ(72,1,10) occ(5,2,10) occ(9,2,6) occ(17,2,4) occ(28,2,5) occ(42,2,2) occ(48,2,7) occ(70,2,8) occ(19,3,2) occ(32,3,6) occ(38,3,5) occ(44,3,4) occ(52,3,10) occ(74,3,9) occ(11,4,7) occ(15,4,5) occ(23,4,1) occ(26,4,4) occ(34,4,8) occ(40,4,3) occ(46,4,6) occ(68,4,9) occ(78,4,10) occ(6,5,5) occ(21,5,3) occ(24,5,2) occ(36,5,6) occ(54,5,9) occ(76,5,8) occ(94,5,7) occ(4,6,7) occ(8,6,3) occ(13,6,6) occ(22,6,4) occ(25,6,2) occ(55,6,1) occ(66,6,10) occ(80,6,9) occ(92,6,5) occ(10,7,1) occ(16,7,6) occ(37,7,5) occ(56,7,10) occ(64,7,8) occ(82,7,7) occ(14,8,4) occ(20,8,3) occ(27,8,1) occ(35,8,7) occ(43,8,5) occ(53,8,2) occ(58,8,8) occ(84,8,9) occ(90,8,6) occ(12,9,2) occ(18,9,5) occ(31,9,4) occ(39,9,6) occ(45,9,7) occ(49,9,3) occ(62,9,9) occ(88,9,8) occ(29,10,2) occ(33,10,6) occ(41,10,4) occ(47,10,5) occ(51,10,1) occ(60,10,7) occ(86,10,10)
Optimization: -57
Answer: 11
occ(1,8,10) occ(1,3,3) occ(1,9,1) occ(1,10,8) occ(2,7,9) occ(3,3,8) coverage(59) occ(11,1,2) occ(30,1,7) occ(33,1,3) occ(50,1,9) occ(72,1,10) occ(5,2,6) occ(9,2,4) occ(28,2,5) occ(35,2,1) occ(42,2,2) occ(48,2,7) occ(70,2,8) occ(13,3,1) occ(31,3,2) occ(32,3,6) occ(38,3,5) occ(44,3,4) occ(52,3,10) occ(74,3,9) occ(7,4,5) occ(26,4,4) occ(34,4,8) occ(37,4,2) occ(40,4,3) occ(46,4,6) occ(68,4,9) occ(78,4,10) occ(4,5,10) occ(15,5,2) occ(29,5,1) occ(36,5,6) occ(39,5,4) occ(54,5,9) occ(76,5,8) occ(94,5,7) occ(6,6,8) occ(24,6,3) occ(25,6,4) occ(41,6,6) occ(57,6,2) occ(66,6,10) occ(80,6,9) occ(92,6,5) occ(8,7,6) occ(17,7,3) occ(22,7,1) occ(27,7,2) occ(56,7,10) occ(64,7,8) occ(82,7,7) occ(14,8,4) occ(19,8,1) occ(23,8,5) occ(43,8,7) occ(49,8,2) occ(55,8,3) occ(58,8,8) occ(84,8,9) occ(90,8,6) occ(10,9,7) occ(16,9,6) occ(20,9,2) occ(21,9,3) occ(45,9,5) occ(51,9,4) occ(62,9,9) occ(88,9,8) occ(12,10,5) occ(18,10,4) occ(47,10,3) occ(53,10,2) occ(60,10,7) occ(86,10,10)
Optimization: -59
Answer: 12
occ(1,8,10) occ(1,3,3) occ(1,9,1) occ(1,10,8) occ(2,7,9) occ(3,3,8) coverage(61) occ(15,1,6) occ(19,1,2) occ(30,1,7) occ(33,1,3) occ(50,1,9) occ(72,1,10) occ(5,2,6) occ(17,2,4) occ(28,2,5) occ(35,2,1) occ(42,2,2) occ(48,2,7) occ(70,2,8) occ(13,3,7) occ(21,3,1) occ(31,3,2) occ(32,3,6) occ(38,3,5) occ(44,3,4) occ(52,3,10) occ(74,3,9) occ(7,4,7) occ(11,4,5) occ(26,4,4) occ(34,4,8) occ(37,4,2) occ(40,4,3) occ(46,4,6) occ(59,4,1) occ(68,4,9) occ(78,4,10) occ(6,5,5) occ(23,5,2) occ(29,5,1) occ(36,5,6) occ(39,5,4) occ(54,5,9) occ(76,5,8) occ(94,5,7) occ(4,6,7) occ(9,6,6) occ(24,6,3) occ(25,6,4) occ(57,6,2) occ(66,6,10) occ(80,6,9) occ(92,6,5) occ(8,7,4) occ(22,7,1) occ(27,7,2) occ(41,7,5) occ(56,7,10) occ(64,7,8) occ(82,7,7) occ(96,7,6) occ(14,8,4) occ(43,8,7) occ(49,8,2) occ(55,8,3) occ(58,8,8) occ(84,8,9) occ(90,8,6) occ(10,9,3) occ(16,9,6) occ(20,9,2) occ(45,9,5) occ(51,9,4) occ(62,9,9) occ(88,9,8) occ(12,10,5) occ(18,10,4) occ(47,10,3) occ(53,10,2) occ(60,10,7) occ(86,10,10)
Optimization: -61
Answer: 13
occ(1,8,10) occ(1,3,3) occ(1,9,1) occ(1,10,8) occ(2,7,9) occ(3,3,8) coverage(63) occ(30,1,7) occ(39,1,6) occ(43,1,2) occ(49,1,1) occ(50,1,9) occ(72,1,10) occ(5,2,6) occ(28,2,5) occ(41,2,4) occ(42,2,2) occ(47,2,3) occ(48,2,7) occ(70,2,8) occ(32,3,6) occ(37,3,7) occ(38,3,5) occ(44,3,4) occ(45,3,1) occ(51,3,2) occ(52,3,10) occ(74,3,9) occ(7,4,7) occ(15,4,1) occ(26,4,4) occ(34,4,8) occ(35,4,5) occ(40,4,3) occ(46,4,6) occ(68,4,9) occ(78,4,10) occ(4,5,10) occ(11,5,4) occ(17,5,3) occ(36,5,6) occ(53,5,1) occ(54,5,9) occ(76,5,8) occ(94,5,7) occ(6,6,8) occ(9,6,6) occ(13,6,2) occ(24,6,3) occ(33,6,4) occ(66,6,10) occ(80,6,9) occ(92,6,5) occ(14,7,5) occ(19,7,4) occ(22,7,1) occ(31,7,6) occ(55,7,2) occ(56,7,10) occ(64,7,8) occ(82,7,7) occ(8,8,7) occ(25,8,2) occ(57,8,4) occ(58,8,8) occ(84,8,9) occ(90,8,6) occ(12,9,4) occ(16,9,6) occ(20,9,2) occ(21,9,3) occ(29,9,5) occ(61,9,7) occ(62,9,9) occ(88,9,8) occ(10,10,6) occ(18,10,4) occ(23,10,1) occ(27,10,3) occ(59,10,5) occ(60,10,7) occ(86,10,10)
Optimization: -63
Answer: 14
occ(1,8,10) occ(1,3,3) occ(1,9,1) occ(1,10,8) occ(2,7,9) occ(3,3,8) coverage(65) occ(30,1,7) occ(39,1,6) occ(43,1,2) occ(49,1,1) occ(50,1,9) occ(72,1,10) occ(5,2,6) occ(28,2,5) occ(41,2,4) occ(42,2,2) occ(47,2,3) occ(48,2,7) occ(70,2,8) occ(32,3,6) occ(37,3,7) occ(38,3,5) occ(44,3,4) occ(45,3,1) occ(51,3,2) occ(52,3,10) occ(74,3,9) occ(7,4,7) occ(15,4,1) occ(26,4,4) occ(34,4,8) occ(35,4,5) occ(40,4,3) occ(46,4,6) occ(68,4,9) occ(78,4,10) occ(4,5,10) occ(11,5,4) occ(17,5,3) occ(36,5,6) occ(53,5,1) occ(54,5,9) occ(76,5,8) occ(94,5,7) occ(6,6,8) occ(9,6,6) occ(13,6,2) occ(24,6,3) occ(33,6,4) occ(66,6,10) occ(80,6,9) occ(92,6,5) occ(14,7,5) occ(19,7,4) occ(22,7,1) occ(31,7,6) occ(55,7,2) occ(56,7,10) occ(64,7,8) occ(82,7,7) occ(8,8,7) occ(25,8,2) occ(57,8,4) occ(58,8,8) occ(84,8,9) occ(90,8,6) occ(12,9,4) occ(16,9,6) occ(20,9,2) occ(21,9,3) occ(29,9,5) occ(61,9,7) occ(62,9,9) occ(88,9,8) occ(10,10,6) occ(18,10,4) occ(23,10,1) occ(27,10,3) occ(59,10,5) occ(60,10,7) occ(63,10,9) occ(86,10,10)
Optimization: -65
Answer: 15
occ(1,8,10) occ(1,3,3) occ(1,9,1) occ(1,10,8) occ(2,7,9) occ(3,3,8) coverage(67) occ(30,1,7) occ(39,1,6) occ(43,1,2) occ(49,1,1) occ(50,1,9) occ(72,1,10) occ(5,2,6) occ(28,2,5) occ(41,2,4) occ(42,2,2) occ(47,2,3) occ(48,2,7) occ(70,2,8) occ(32,3,6) occ(37,3,7) occ(38,3,5) occ(44,3,4) occ(45,3,1) occ(51,3,2) occ(52,3,10) occ(74,3,9) occ(7,4,7) occ(15,4,1) occ(26,4,4) occ(34,4,8) occ(35,4,5) occ(40,4,3) occ(46,4,6) occ(68,4,9) occ(78,4,10) occ(4,5,10) occ(11,5,4) occ(17,5,3) occ(36,5,6) occ(53,5,1) occ(54,5,9) occ(76,5,8) occ(94,5,7) occ(6,6,8) occ(9,6,6) occ(13,6,2) occ(24,6,3) occ(33,6,4) occ(66,6,10) occ(80,6,9) occ(92,6,5) occ(14,7,5) occ(19,7,4) occ(22,7,1) occ(31,7,6) occ(55,7,2) occ(56,7,10) occ(64,7,8) occ(65,7,3) occ(82,7,7) occ(8,8,7) occ(25,8,2) occ(57,8,4) occ(58,8,8) occ(63,8,5) occ(84,8,9) occ(90,8,6) occ(12,9,4) occ(16,9,6) occ(20,9,2) occ(21,9,3) occ(29,9,5) occ(61,9,7) occ(62,9,9) occ(88,9,8) occ(10,10,6) occ(18,10,4) occ(23,10,1) occ(27,10,3) occ(59,10,5) occ(60,10,7) occ(86,10,10)
Optimization: -67
Answer: 16
occ(1,8,10) occ(1,3,3) occ(1,9,1) occ(1,10,8) occ(2,7,9) occ(3,3,8) coverage(69) occ(30,1,7) occ(39,1,6) occ(43,1,2) occ(49,1,1) occ(50,1,9) occ(72,1,10) occ(5,2,6) occ(28,2,5) occ(41,2,4) occ(42,2,2) occ(47,2,3) occ(48,2,7) occ(70,2,8) occ(32,3,6) occ(37,3,7) occ(38,3,5) occ(44,3,4) occ(45,3,1) occ(51,3,2) occ(52,3,10) occ(74,3,9) occ(7,4,7) occ(15,4,1) occ(26,4,4) occ(34,4,8) occ(35,4,5) occ(40,4,3) occ(46,4,6) occ(68,4,9) occ(78,4,10) occ(4,5,10) occ(11,5,4) occ(17,5,3) occ(36,5,6) occ(53,5,1) occ(54,5,9) occ(76,5,8) occ(94,5,7) occ(6,6,8) occ(9,6,6) occ(13,6,2) occ(24,6,3) occ(33,6,4) occ(66,6,10) occ(80,6,9) occ(92,6,5) occ(14,7,5) occ(19,7,4) occ(22,7,1) occ(31,7,6) occ(55,7,2) occ(56,7,10) occ(64,7,8) occ(65,7,3) occ(82,7,7) occ(8,8,7) occ(25,8,2) occ(57,8,4) occ(58,8,8) occ(63,8,5) occ(67,8,1) occ(84,8,9) occ(90,8,6) occ(12,9,4) occ(16,9,6) occ(20,9,2) occ(21,9,3) occ(29,9,5) occ(61,9,7) occ(62,9,9) occ(88,9,8) occ(10,10,6) occ(18,10,4) occ(23,10,1) occ(27,10,3) occ(59,10,5) occ(60,10,7) occ(86,10,10)
Optimization: -69
Answer: 17
occ(1,8,10) occ(1,3,3) occ(1,9,1) occ(1,10,8) occ(2,7,9) occ(3,3,8) coverage(71) occ(30,1,7) occ(39,1,6) occ(43,1,2) occ(49,1,1) occ(50,1,9) occ(72,1,10) occ(5,2,6) occ(28,2,5) occ(41,2,4) occ(42,2,2) occ(47,2,3) occ(48,2,7) occ(70,2,8) occ(32,3,6) occ(37,3,7) occ(38,3,5) occ(44,3,4) occ(45,3,1) occ(51,3,2) occ(52,3,10) occ(74,3,9) occ(7,4,7) occ(15,4,1) occ(26,4,4) occ(34,4,8) occ(35,4,5) occ(40,4,3) occ(46,4,6) occ(68,4,9) occ(78,4,10) occ(4,5,10) occ(11,5,4) occ(17,5,3) occ(36,5,6) occ(53,5,1) occ(54,5,9) occ(76,5,8) occ(94,5,7) occ(6,6,8) occ(9,6,6) occ(13,6,2) occ(24,6,3) occ(33,6,4) occ(66,6,10) occ(80,6,9) occ(92,6,5) occ(14,7,5) occ(19,7,4) occ(22,7,1) occ(31,7,6) occ(55,7,2) occ(56,7,10) occ(64,7,8) occ(65,7,3) occ(82,7,7) occ(8,8,7) occ(25,8,2) occ(57,8,4) occ(58,8,8) occ(63,8,5) occ(67,8,1) occ(84,8,9) occ(90,8,6) occ(12,9,4) occ(16,9,6) occ(20,9,2) occ(21,9,3) occ(29,9,5) occ(61,9,7) occ(62,9,9) occ(88,9,8) occ(10,10,6) occ(18,10,4) occ(23,10,1) occ(27,10,3) occ(59,10,5) occ(60,10,7) occ(69,10,2) occ(86,10,10)
Optimization: -71
Answer: 18
occ(1,8,10) occ(1,3,3) occ(1,9,1) occ(1,10,8) occ(2,7,9) occ(3,3,8) coverage(73) occ(30,1,7) occ(39,1,6) occ(43,1,2) occ(49,1,1) occ(50,1,9) occ(72,1,10) occ(5,2,6) occ(28,2,5) occ(41,2,4) occ(42,2,2) occ(47,2,3) occ(48,2,7) occ(70,2,8) occ(71,2,1) occ(32,3,6) occ(37,3,7) occ(38,3,5) occ(44,3,4) occ(45,3,1) occ(51,3,2) occ(52,3,10) occ(74,3,9) occ(7,4,7) occ(15,4,1) occ(26,4,4) occ(34,4,8) occ(35,4,5) occ(40,4,3) occ(46,4,6) occ(68,4,9) occ(69,4,2) occ(78,4,10) occ(4,5,10) occ(11,5,4) occ(17,5,3) occ(36,5,6) occ(53,5,1) occ(54,5,9) occ(76,5,8) occ(94,5,7) occ(6,6,8) occ(9,6,6) occ(13,6,2) occ(24,6,3) occ(33,6,4) occ(66,6,10) occ(67,6,1) occ(80,6,9) occ(92,6,5) occ(14,7,5) occ(19,7,4) occ(22,7,1) occ(31,7,6) occ(55,7,2) occ(56,7,10) occ(64,7,8) occ(65,7,3) occ(82,7,7) occ(8,8,7) occ(25,8,2) occ(57,8,4) occ(58,8,8) occ(63,8,5) occ(84,8,9) occ(90,8,6) occ(12,9,4) occ(16,9,6) occ(20,9,2) occ(21,9,3) occ(29,9,5) occ(61,9,7) occ(62,9,9) occ(88,9,8) occ(10,10,6) occ(18,10,4) occ(23,10,1) occ(27,10,3) occ(59,10,5) occ(60,10,7) occ(86,10,10)
Optimization: -73
Answer: 19
occ(1,8,10) occ(1,3,3) occ(1,9,1) occ(1,10,8) occ(2,7,9) occ(3,3,8) coverage(75) occ(30,1,7) occ(39,1,6) occ(50,1,9) occ(72,1,10) occ(5,2,6) occ(28,2,5) occ(41,2,4) occ(42,2,2) occ(48,2,7) occ(67,2,3) occ(70,2,8) occ(32,3,6) occ(37,3,7) occ(38,3,5) occ(43,3,2) occ(44,3,4) occ(52,3,10) occ(69,3,1) occ(74,3,9) occ(7,4,7) occ(15,4,1) occ(26,4,4) occ(34,4,8) occ(35,4,5) occ(40,4,3) occ(46,4,6) occ(65,4,2) occ(68,4,9) occ(78,4,10) occ(4,5,10) occ(10,5,5) occ(11,5,4) occ(17,5,3) occ(36,5,6) occ(45,5,1) occ(54,5,9) occ(71,5,2) occ(76,5,8) occ(94,5,7) occ(6,6,8) occ(9,6,6) occ(12,6,7) occ(13,6,2) occ(24,6,3) occ(33,6,4) occ(63,6,1) occ(66,6,10) occ(80,6,9) occ(92,6,5) occ(8,7,6) occ(14,7,5) occ(19,7,4) occ(22,7,1) occ(47,7,2) occ(56,7,10) occ(64,7,8) occ(73,7,3) occ(82,7,7) occ(23,8,7) occ(31,8,3) occ(49,8,4) occ(55,8,5) occ(58,8,8) occ(61,8,2) occ(84,8,9) occ(90,8,6) occ(16,9,6) occ(20,9,2) occ(21,9,5) occ(27,9,4) occ(53,9,7) occ(57,9,3) occ(62,9,9) occ(88,9,8) occ(18,10,4) occ(25,10,6) occ(29,10,2) occ(51,10,5) occ(59,10,1) occ(60,10,7) occ(86,10,10)
Optimization: -75
Answer: 20
occ(1,8,10) occ(1,3,3) occ(1,9,1) occ(1,10,8) occ(2,7,9) occ(3,3,8) coverage(86) occ(39,1,6) occ(40,1,10) occ(43,1,2) occ(49,1,1) occ(50,1,9) occ(76,1,4) occ(81,1,7) occ(85,1,3) occ(5,2,6) occ(38,2,8) occ(41,2,4) occ(47,2,3) occ(48,2,7) occ(78,2,2) occ(79,2,9) occ(83,2,5) occ(37,3,7) occ(42,3,9) occ(45,3,1) occ(51,3,2) occ(52,3,10) occ(56,3,6) occ(74,3,5) occ(80,3,4) occ(7,4,7) occ(15,4,1) occ(26,4,4) occ(35,4,5) occ(36,4,9) occ(46,4,6) occ(54,4,8) occ(72,4,3) occ(77,4,10) occ(82,4,2) occ(4,5,10) occ(11,5,4) occ(17,5,3) occ(28,5,6) occ(44,5,8) occ(53,5,1) occ(58,5,7) occ(66,5,9) occ(70,5,5) occ(6,6,8) occ(9,6,6) occ(13,6,2) occ(24,6,3) occ(33,6,4) occ(34,6,10) occ(63,6,5) occ(68,6,7) occ(75,6,9) occ(84,6,1) occ(14,7,5) occ(19,7,4) occ(22,7,1) occ(30,7,7) occ(31,7,6) occ(55,7,2) occ(60,7,8) occ(64,7,10) occ(65,7,3) occ(8,8,7) occ(25,8,2) occ(32,8,9) occ(57,8,4) occ(61,8,6) occ(67,8,5) occ(73,8,8) occ(12,9,4) occ(16,9,6) occ(20,9,2) occ(21,9,3) occ(29,9,5) occ(62,9,9) occ(69,9,7) occ(10,10,6) occ(18,10,4) occ(23,10,1) occ(27,10,3) occ(59,10,5) occ(71,10,9)
Optimization: -86
Answer: 21
occ(1,8,10) occ(1,3,3) occ(1,9,1) occ(1,10,8) occ(2,7,9) occ(3,3,8) coverage(88) occ(13,1,7) occ(17,1,5) occ(32,1,8) occ(43,1,4) occ(53,1,3) occ(71,1,2) occ(75,1,6) occ(79,1,10) occ(85,1,9) occ(11,2,5) occ(19,2,3) occ(28,2,9) occ(34,2,10) occ(41,2,6) occ(45,2,2) occ(51,2,1) occ(73,2,4) occ(77,2,8) occ(83,2,7) occ(15,3,6) occ(21,3,5) occ(30,3,7) occ(47,3,4) occ(55,3,2) occ(69,3,1) occ(81,3,9) occ(87,3,10) occ(9,4,6) occ(26,4,8) occ(36,4,9) occ(39,4,5) occ(49,4,2) occ(50,4,4) occ(67,4,3) occ(4,5,8) occ(5,5,9) occ(10,5,7) occ(23,5,4) occ(24,5,10) occ(37,5,3) occ(48,5,6) occ(52,5,2) occ(57,5,1) occ(65,5,5) occ(6,6,6) occ(7,6,7) occ(12,6,9) occ(22,6,8) occ(31,6,5) occ(35,6,1) occ(38,6,10) occ(61,6,4) occ(66,6,2) occ(76,6,3) occ(8,7,8) occ(20,7,10) occ(25,7,5) occ(33,7,3) occ(46,7,7) occ(54,7,1) occ(59,7,2) occ(63,7,6) occ(68,7,4) occ(14,8,8) occ(29,8,6) occ(40,8,9) occ(60,8,3) occ(64,8,1) occ(74,8,2) occ(78,8,4) occ(84,8,7) occ(18,9,9) occ(27,9,4) occ(44,9,8) occ(56,9,2) occ(70,9,3) occ(82,9,5) occ(16,10,7) occ(42,10,10) occ(58,10,4) occ(62,10,2) occ(72,10,1) occ(80,10,3) occ(86,10,6)
Optimization: -88
Answer: 22
occ(1,8,10) occ(1,3,3) occ(1,9,1) occ(1,10,8) occ(2,7,9) occ(3,3,8) coverage(89) occ(25,1,3) occ(26,1,7) occ(47,1,4) occ(51,1,8) occ(64,1,2) occ(75,1,6) occ(81,1,9) occ(24,2,9) occ(27,2,1) occ(45,2,2) occ(49,2,6) occ(53,2,10) occ(66,2,4) occ(67,2,3) occ(71,2,5) occ(77,2,8) occ(83,2,7) occ(9,3,9) occ(23,3,4) occ(28,3,6) occ(62,3,1) occ(65,3,5) occ(68,3,2) occ(73,3,7) occ(79,3,10) occ(7,4,7) occ(19,4,5) occ(22,4,10) occ(29,4,2) occ(30,4,8) occ(43,4,1) occ(55,4,9) occ(69,4,4) occ(85,4,6) occ(88,4,3) occ(5,5,9) occ(11,5,8) occ(21,5,3) occ(32,5,10) occ(57,5,7) occ(60,5,2) occ(63,5,6) occ(70,5,1) occ(86,5,5) occ(13,6,10) occ(16,6,5) occ(17,6,6) occ(20,6,9) occ(31,6,1) occ(34,6,8) occ(41,6,2) occ(61,6,4) occ(72,6,3) occ(87,6,7) occ(15,7,8) occ(18,7,7) occ(36,7,10) occ(54,7,3) occ(58,7,1) occ(59,7,6) occ(74,7,5) occ(84,7,4) occ(8,8,9) occ(14,8,4) occ(33,8,2) occ(39,8,3) occ(42,8,8) occ(48,8,5) occ(52,8,1) occ(76,8,7) occ(82,8,6) occ(4,9,8) occ(10,9,7) occ(37,9,5) occ(38,9,9) occ(44,9,6) occ(50,9,3) occ(56,9,2) occ(80,9,4) occ(6,10,10) occ(12,10,5) occ(35,10,3) occ(40,10,7) occ(46,10,4) occ(78,10,6)
Optimization: -89
Answer: 23
occ(1,8,10) occ(1,3,3) occ(1,9,1) occ(1,10,8) occ(2,7,9) occ(3,3,8) coverage(90) occ(30,1,9) occ(39,1,2) occ(51,1,8) occ(55,1,6) occ(58,1,1) occ(59,1,4) occ(72,1,10) occ(78,1,5) occ(85,1,7) occ(89,1,3) occ(5,2,6) occ(28,2,7) occ(41,2,4) occ(49,2,10) occ(56,2,3) occ(61,2,2) occ(74,2,8) occ(83,2,9) occ(87,2,5) occ(32,3,10) occ(37,3,1) occ(53,3,7) occ(57,3,5) occ(60,3,2) occ(70,3,9) occ(76,3,6) occ(80,3,4) occ(7,4,7) occ(26,4,6) occ(43,4,5) occ(47,4,9) occ(54,4,2) occ(62,4,4) occ(63,4,1) occ(66,4,8) occ(81,4,10) occ(88,4,3) occ(15,5,8) occ(24,5,4) occ(34,5,9) occ(35,5,2) occ(45,5,7) occ(50,5,3) occ(64,5,6) occ(68,5,10) occ(82,5,5) occ(86,5,1) occ(9,6,8) occ(13,6,10) occ(17,6,6) occ(46,6,4) occ(52,6,1) occ(65,6,2) occ(71,6,5) occ(79,6,9) occ(84,6,3) occ(8,7,8) occ(16,7,4) occ(22,7,5) occ(33,7,1) occ(36,7,10) occ(44,7,6) occ(48,7,2) occ(69,7,3) occ(77,7,7) occ(6,8,6) occ(11,8,9) occ(19,8,5) occ(20,8,7) occ(27,8,3) occ(42,8,8) occ(67,8,1) occ(73,8,4) occ(4,9,8) occ(10,9,7) occ(14,9,3) occ(18,9,5) occ(23,9,4) occ(31,9,2) occ(38,9,9) occ(75,9,6) occ(12,10,5) occ(21,10,6) occ(25,10,2) occ(29,10,4) occ(40,10,7)
Optimization: -90
Answer: 24
occ(1,8,10) occ(1,3,3) occ(1,9,1) occ(1,10,8) occ(2,7,9) occ(3,3,8) coverage(91) occ(46,1,5) occ(47,1,6) occ(67,1,8) occ(71,1,4) occ(74,1,3) occ(78,1,7) occ(90,1,9) occ(44,2,7) occ(48,2,3) occ(49,2,4) occ(61,2,8) occ(65,2,10) occ(69,2,6) occ(72,2,1) occ(73,2,2) occ(76,2,5) occ(80,2,9) occ(7,3,6) occ(31,3,4) occ(42,3,9) occ(45,3,7) occ(50,3,1) occ(51,3,2) occ(57,3,5) occ(88,3,10) occ(11,4,3) occ(33,4,6) occ(43,4,5) occ(53,4,4) occ(59,4,7) occ(63,4,9) occ(70,4,2) occ(75,4,1) occ(82,4,10) occ(86,4,8) occ(4,5,10) occ(5,5,7) occ(9,5,5) occ(13,5,1) occ(29,5,3) occ(34,5,9) occ(40,5,8) occ(52,5,2) occ(55,5,6) occ(68,5,4) occ(6,6,8) occ(15,6,3) occ(18,6,6) occ(27,6,5) occ(35,6,7) occ(38,6,10) occ(41,6,4) occ(56,6,1) occ(77,6,2) occ(84,6,9) occ(17,7,1) occ(24,7,4) occ(25,7,7) occ(32,7,10) occ(36,7,8) occ(39,7,6) occ(54,7,3) occ(66,7,5) occ(83,7,2) occ(8,8,9) occ(16,8,5) occ(20,8,7) occ(26,8,6) occ(37,8,8) occ(58,8,2) occ(64,8,3) occ(79,8,1) occ(85,8,4) occ(12,9,8) occ(19,9,2) occ(22,9,5) occ(23,9,6) occ(30,9,9) occ(60,9,4) occ(81,9,3) occ(89,9,7) occ(10,10,10) occ(14,10,6) occ(21,10,4) occ(28,10,7) occ(62,10,2) occ(87,10,5)
Optimization: -91
Answer: 25
occ(1,8,10) occ(1,3,3) occ(1,9,1) occ(1,10,8) occ(2,7,9) occ(3,3,8) coverage(92) occ(46,1,5) occ(47,1,6) occ(67,1,8) occ(71,1,4) occ(74,1,3) occ(78,1,7) occ(90,1,9) occ(44,2,7) occ(48,2,3) occ(49,2,4) occ(61,2,8) occ(65,2,10) occ(69,2,6) occ(72,2,1) occ(73,2,2) occ(76,2,5) occ(80,2,9) occ(7,3,6) occ(31,3,4) occ(42,3,9) occ(45,3,7) occ(50,3,1) occ(51,3,2) occ(57,3,5) occ(88,3,10) occ(11,4,3) occ(33,4,6) occ(43,4,5) occ(53,4,4) occ(59,4,7) occ(63,4,9) occ(70,4,2) occ(75,4,1) occ(82,4,10) occ(86,4,8) occ(4,5,10) occ(5,5,7) occ(9,5,5) occ(13,5,1) occ(29,5,3) occ(34,5,9) occ(40,5,8) occ(52,5,2) occ(55,5,6) occ(68,5,4) occ(6,6,8) occ(15,6,3) occ(18,6,6) occ(27,6,5) occ(35,6,7) occ(38,6,10) occ(41,6,4) occ(56,6,1) occ(77,6,2) occ(84,6,9) occ(17,7,1) occ(24,7,4) occ(25,7,7) occ(32,7,10) occ(36,7,8) occ(39,7,6) occ(54,7,3) occ(66,7,5) occ(83,7,2) occ(8,8,9) occ(16,8,5) occ(20,8,7) occ(26,8,6) occ(37,8,8) occ(58,8,2) occ(64,8,3) occ(79,8,1) occ(85,8,4) occ(12,9,8) occ(19,9,2) occ(22,9,5) occ(23,9,6) occ(30,9,9) occ(60,9,4) occ(81,9,3) occ(89,9,7) occ(10,10,10) occ(14,10,6) occ(21,10,4) occ(28,10,7) occ(62,10,2) occ(87,10,5) occ(91,10,9)
Optimization: -92
Answer: 26
occ(1,8,10) occ(1,3,3) occ(1,9,1) occ(1,10,8) occ(2,7,9) occ(3,3,8) coverage(93) occ(5,1,9) occ(8,1,8) occ(34,1,7) occ(39,1,4) occ(46,1,5) occ(52,1,2) occ(73,1,3) occ(9,2,8) occ(10,2,10) occ(35,2,7) occ(36,2,5) occ(41,2,2) occ(42,2,6) occ(48,2,3) occ(54,2,4) occ(71,2,1) occ(88,2,9) occ(6,3,9) occ(7,3,10) occ(32,3,6) occ(37,3,5) occ(38,3,7) occ(44,3,4) occ(50,3,1) occ(75,3,2) occ(11,4,7) occ(12,4,9) occ(33,4,6) occ(40,4,5) occ(43,4,1) occ(56,4,3) occ(69,4,2) occ(77,4,4) occ(86,4,8) occ(90,4,10) occ(4,5,10) occ(13,5,9) occ(16,5,8) occ(30,5,7) occ(58,5,1) occ(67,5,4) occ(70,5,3) occ(74,5,5) occ(79,5,2) occ(84,5,6) occ(14,6,10) occ(25,6,6) occ(26,6,8) occ(31,6,5) occ(45,6,2) occ(60,6,3) occ(68,6,1) occ(76,6,7) occ(81,6,4) occ(92,6,9) occ(15,7,10) occ(18,7,7) occ(27,7,8) occ(28,7,6) occ(49,7,1) occ(65,7,3) occ(72,7,4) occ(82,7,5) occ(83,7,2) occ(23,8,7) occ(24,8,9) occ(29,8,6) occ(47,8,3) occ(55,8,5) occ(62,8,4) occ(63,8,1) occ(66,8,2) occ(78,8,8) occ(17,9,9) occ(20,9,8) occ(21,9,5) occ(51,9,2) occ(59,9,4) occ(80,9,6) occ(85,9,3) occ(89,9,7) occ(19,10,7) occ(22,10,10) occ(53,10,4) occ(57,10,6) occ(61,10,2) occ(64,10,3) occ(87,10,5) occ(91,10,9)
Optimization: -93
Answer: 27
occ(1,8,10) occ(1,3,3) occ(1,9,1) occ(1,10,8) occ(2,7,9) occ(3,3,8) coverage(94) occ(5,1,9) occ(28,1,8) occ(32,1,4) occ(33,1,7) occ(36,1,6) occ(40,1,10) occ(50,1,5) occ(65,1,3) occ(92,1,2) occ(93,1,1) occ(26,2,10) occ(29,2,4) occ(30,2,6) occ(35,2,9) occ(38,2,8) occ(48,2,7) occ(63,2,5) occ(86,2,2) occ(91,2,3) occ(7,3,10) occ(31,3,6) occ(34,3,5) occ(42,3,9) occ(52,3,4) occ(61,3,7) occ(67,3,2) occ(90,3,1) occ(6,4,6) occ(11,4,7) occ(24,4,9) occ(27,4,5) occ(37,4,10) occ(46,4,8) occ(78,4,2) occ(84,4,1) occ(88,4,3) occ(89,4,4) occ(8,5,4) occ(9,5,9) occ(15,5,6) occ(22,5,7) occ(44,5,10) occ(54,5,5) occ(59,5,8) occ(69,5,1) occ(72,5,2) occ(82,5,3) occ(4,6,7) occ(13,6,8) occ(25,6,6) occ(39,6,9) occ(57,6,10) occ(58,6,2) occ(70,6,4) occ(76,6,3) occ(80,6,1) occ(87,6,5) occ(10,7,3) occ(16,7,6) occ(17,7,7) occ(20,7,8) occ(43,7,10) occ(56,7,4) occ(66,7,5) occ(71,7,2) occ(74,7,1) occ(14,8,4) occ(23,8,5) occ(41,8,8) occ(47,8,7) occ(55,8,9) occ(60,8,1) occ(68,8,3) occ(77,8,2) occ(85,8,6) occ(12,9,2) occ(18,9,7) occ(19,9,6) occ(45,9,9) occ(51,9,8) occ(64,9,4) occ(73,9,3) occ(81,9,5) occ(21,10,4) occ(49,10,6) occ(53,10,10) occ(62,10,2) occ(75,10,1) occ(79,10,3) occ(83,10,7)
Optimization: -94
*** Info : (clingo): INTERRUPTED by signal!
SATISFIABLE

TIME LIMIT   : 1
Models       : 27+
  Optimum    : unknown
Optimization : -94
Calls        : 1
Time         : 300.000s (Solving: 298.50s 1st Model: 0.00s Unsat: 0.00s)
CPU Time     : 299.990s
